
Gurobi 9.0.1 (linux64) logging started Thu Apr 30 22:14:07 2020

Gurobi Optimizer version 9.0.1 build v9.0.1rc0 (linux64)
Optimize a model with 32222 rows, 27380 columns and 603960 nonzeros
Model fingerprint: 0x1a158943
Variable types: 0 continuous, 27380 integer (27342 binary)
Coefficient statistics:
  Matrix range     [1e+00, 2e+01]
  Objective range  [2e+00, 1e+02]
  Bounds range     [1e+00, 1e+00]
  RHS range        [1e+00, 1e+00]

User MIP start produced solution with objective 1199 (0.88s)
Loaded user MIP start with objective 1199

Presolve removed 14186 rows and 9387 columns (presolve time = 5s) ...
Presolve removed 14228 rows and 9447 columns (presolve time = 10s) ...
Presolve removed 14228 rows and 9447 columns
Presolve time: 10.76s
Presolved: 17994 rows, 17933 columns, 501060 nonzeros
Variable types: 0 continuous, 17933 integer (17897 binary)

Root simplex log...

Iteration    Objective       Primal Inf.    Dual Inf.      Time
       0    0.0000000e+00   1.940000e+02   0.000000e+00     13s
    1552    5.8100005e+02   1.353425e+03   0.000000e+00     15s
    3295    5.8758341e+02   4.410042e+03   0.000000e+00     20s
    4789    5.9625009e+02   1.040614e+04   0.000000e+00     25s
    6117    6.0201585e+02   6.132631e+04   0.000000e+00     30s
    7196    6.0752159e+02   6.681043e+03   0.000000e+00     35s
    8275    6.1444789e+02   2.496519e+04   0.000000e+00     40s
    9271    6.1607563e+02   1.656564e+03   0.000000e+00     45s
   10267    6.1818761e+02   2.734110e+03   0.000000e+00     50s
   11180    6.2107947e+02   7.224138e+03   0.000000e+00     55s
   12093    6.2487246e+02   2.909531e+04   0.000000e+00     60s
   12923    6.2619161e+02   3.988763e+04   0.000000e+00     65s
   13836    6.2715852e+02   1.211779e+03   0.000000e+00     70s
   14749    6.2763314e+02   7.378192e+04   0.000000e+00     75s
   15758    6.2844624e+02   2.487122e+03   0.000000e+00     80s
   16588    6.2929780e+02   1.796774e+03   0.000000e+00     85s
   17418    6.3069480e+02   1.373767e+04   0.000000e+00     90s
   18165    6.3167363e+02   3.401674e+03   0.000000e+00     95s
   18909    6.3236179e+02   1.136089e+04   0.000000e+00    100s
   19739    6.3324877e+02   4.018905e+03   0.000000e+00    105s
   20486    6.3387278e+02   1.753567e+03   0.000000e+00    110s
   21230    6.3454094e+02   1.837128e+03   0.000000e+00    115s
   21971    6.3508575e+02   2.212376e+03   0.000000e+00    121s
   22635    6.3563433e+02   1.978599e+03   0.000000e+00    125s
   23299    6.3613887e+02   2.601578e+03   0.000000e+00    130s
   23963    6.3669189e+02   3.412724e+01   0.000000e+00    135s
   24627    6.3724511e+02   2.647117e+02   0.000000e+00    140s
   25288    6.3761225e+02   4.857029e+02   0.000000e+00    146s
   25748    6.3775016e+02   6.192016e-01   0.000000e+00    151s
   25885    6.3775842e+02   0.000000e+00   0.000000e+00    152s

Root relaxation: objective 6.377584e+02, 25885 iterations, 140.20 seconds

    Nodes    |    Current Node    |     Objective Bounds      |     Work
 Expl Unexpl |  Obj  Depth IntInf | Incumbent    BestBd   Gap | It/Node Time

     0     0  637.75842    0 2563 1199.00000  637.75842  46.8%     -  161s
     0     0  674.05114    0 2617 1199.00000  674.05114  43.8%     -  293s
     0     0  677.38897    0 2634 1199.00000  677.38897  43.5%     -  337s
     0     0  677.49422    0 2662 1199.00000  677.49422  43.5%     -  344s
     0     0  677.49678    0 2660 1199.00000  677.49678  43.5%     -  347s
     0     0  689.51969    0 2644 1199.00000  689.51969  42.5%     -  440s
     0     0  690.25088    0 2670 1199.00000  690.25088  42.4%     -  465s
     0     0  691.30035    0 2649 1199.00000  691.30035  42.3%     -  488s
     0     0  691.31550    0 2654 1199.00000  691.31550  42.3%     -  492s
     0     0  691.31846    0 2651 1199.00000  691.31846  42.3%     -  495s
     0     0  704.08090    0 2685 1199.00000  704.08090  41.3%     -  649s
     0     0  705.20348    0 2708 1199.00000  705.20348  41.2%     -  691s
     0     0  705.34669    0 2694 1199.00000  705.34669  41.2%     -  704s
     0     0  705.39592    0 2713 1199.00000  705.39592  41.2%     -  711s
     0     0  705.40297    0 2708 1199.00000  705.40297  41.2%     -  716s
     0     0  710.57263    0 2736 1199.00000  710.57263  40.7%     -  847s
     0     0  710.90142    0 2747 1199.00000  710.90142  40.7%     -  882s
     0     0  710.99698    0 2760 1199.00000  710.99698  40.7%     -  892s
     0     0  711.03839    0 2752 1199.00000  711.03839  40.7%     -  899s
     0     0  711.04224    0 2760 1199.00000  711.04224  40.7%     -  902s
     0     0  712.54785    0 2771 1199.00000  712.54785  40.6%     -  970s
     0     0  712.67554    0 2778 1199.00000  712.67554  40.6%     - 1006s
     0     0  712.70265    0 2776 1199.00000  712.70265  40.6%     - 1013s
     0     0  712.70720    0 2776 1199.00000  712.70720  40.6%     - 1016s
     0     0  713.85526    0 2755 1199.00000  713.85526  40.5%     - 1067s
     0     0  714.01956    0 2777 1199.00000  714.01956  40.4%     - 1114s
     0     0  714.06078    0 2788 1199.00000  714.06078  40.4%     - 1121s
     0     0  714.07232    0 2789 1199.00000  714.07232  40.4%     - 1125s
     0     0  714.76052    0 2806 1199.00000  714.76052  40.4%     - 1169s
     0     0  714.86579    0 2792 1199.00000  714.86579  40.4%     - 1185s
     0     0  714.88544    0 2788 1199.00000  714.88544  40.4%     - 1192s
     0     0  714.89084    0 2791 1199.00000  714.89084  40.4%     - 1195s
     0     0  715.30011    0 2785 1199.00000  715.30011  40.3%     - 1229s
     0     0  715.35571    0 2783 1199.00000  715.35571  40.3%     - 1241s
     0     0  715.37015    0 2807 1199.00000  715.37015  40.3%     - 1246s
     0     0  715.61153    0 2772 1199.00000  715.61153  40.3%     - 1271s
     0     0  715.65633    0 2798 1199.00000  715.65633  40.3%     - 1282s
     0     0  715.67408    0 2792 1199.00000  715.67408  40.3%     - 1287s
     0     0  716.06462    0 2775 1199.00000  716.06462  40.3%     - 1316s
     0     0  716.12396    0 2786 1199.00000  716.12396  40.3%     - 1364s
     0     0  716.13813    0 2773 1199.00000  716.13813  40.3%     - 1369s
     0     0  716.69036    0 2793 1199.00000  716.69036  40.2%     - 1402s
     0     0  716.78641    0 2791 1199.00000  716.78641  40.2%     - 1417s
     0     0  716.81550    0 2797 1199.00000  716.81550  40.2%     - 1424s
     0     0  716.82402    0 2788 1199.00000  716.82402  40.2%     - 1428s
     0     0  717.11618    0 2777 1199.00000  717.11618  40.2%     - 1453s
     0     0  717.16390    0 2805 1199.00000  717.16390  40.2%     - 1466s
     0     0  717.18427    0 2812 1199.00000  717.18427  40.2%     - 1472s
     0     0  717.18852    0 2801 1199.00000  717.18852  40.2%     - 1475s
     0     0  717.37497    0 2780 1199.00000  717.37497  40.2%     - 1495s
     0     0  717.39515    0 2796 1199.00000  717.39515  40.2%     - 1504s
     0     0  717.39887    0 2784 1199.00000  717.39887  40.2%     - 1507s
     0     0  718.13278    0 2799 1199.00000  718.13278  40.1%     - 1549s
     0     0  718.23178    0 2819 1199.00000  718.23178  40.1%     - 1565s
     0     0  718.24922    0 2803 1199.00000  718.24922  40.1%     - 1571s
     0     0  718.82678    0 2805 1199.00000  718.82678  40.0%     - 1610s
     0     0  718.96586    0 2816 1199.00000  718.96586  40.0%     - 1632s
     0     0  718.98698    0 2814 1199.00000  718.98698  40.0%     - 1639s
     0     0  719.30531    0 2777 1199.00000  719.30531  40.0%     - 1670s
     0     0  719.38098    0 2802 1199.00000  719.38098  40.0%     - 1683s
     0     0  719.39128    0 2812 1199.00000  719.39128  40.0%     - 1688s
     0     0  719.72840    0 2808 1199.00000  719.72840  40.0%     - 1720s
     0     0  719.75895    0 2821 1199.00000  719.75895  40.0%     - 1735s
     0     0  719.76914    0 2824 1199.00000  719.76914  40.0%     - 1740s
     0     0  719.89730    0 2792 1199.00000  719.89730  40.0%     - 1760s
     0     0  719.94729    0 2801 1199.00000  719.94729  40.0%     - 1773s
     0     0  719.95945    0 2804 1199.00000  719.95945  40.0%     - 1779s
     0     0  720.19122    0 2808 1199.00000  720.19122  39.9%     - 1807s
     0     0  720.22286    0 2813 1199.00000  720.22286  39.9%     - 1819s
     0     0  720.23088    0 2812 1199.00000  720.23088  39.9%     - 1824s
     0     0  720.82190    0 2824 1199.00000  720.82190  39.9%     - 1864s
     0     0  720.90583    0 2808 1199.00000  720.90583  39.9%     - 1882s
     0     0  720.93209    0 2817 1199.00000  720.93209  39.9%     - 1892s
     0     0  720.93917    0 2826 1199.00000  720.93917  39.9%     - 1896s
     0     0  721.20133    0 2799 1199.00000  721.20133  39.8%     - 1929s
     0     0  721.24872    0 2804 1199.00000  721.24872  39.8%     - 2002s
     0     0  721.26162    0 2812 1199.00000  721.26162  39.8%     - 2007s
     0     0  721.33231    0 2824 1199.00000  721.33231  39.8%     - 2026s
     0     0  721.38572    0 2827 1199.00000  721.38572  39.8%     - 2041s
     0     0  721.40522    0 2800 1199.00000  721.40522  39.8%     - 2047s
     0     0  722.03209    0 2808 1199.00000  722.03209  39.8%     - 2087s
     0     0  722.08112    0 2829 1199.00000  722.08112  39.8%     - 2100s
     0     0  722.10984    0 2839 1199.00000  722.10984  39.8%     - 2108s
     0     0  722.11555    0 2838 1199.00000  722.11555  39.8%     - 2113s
     0     0  723.29579    0 2816 1199.00000  723.29579  39.7%     - 2162s
     0     0  723.46407    0 2823 1199.00000  723.46407  39.7%     - 2187s
     0     0  723.51067    0 2826 1199.00000  723.51067  39.7%     - 2198s
     0     0  723.53055    0 2814 1199.00000  723.53055  39.7%     - 2205s
     0     0  723.91752    0 2825 1199.00000  723.91752  39.6%     - 2240s
     0     0  724.04662    0 2828 1199.00000  724.04662  39.6%     - 2260s
     0     0  724.08155    0 2831 1199.00000  724.08155  39.6%     - 2270s
     0     0  724.08848    0 2840 1199.00000  724.08848  39.6%     - 2275s
     0     0  724.20522    0 2817 1199.00000  724.20522  39.6%     - 2301s
     0     0  724.23339    0 2822 1199.00000  724.23339  39.6%     - 2312s
     0     0  724.23957    0 2833 1199.00000  724.23957  39.6%     - 2317s
     0     0  724.35881    0 2831 1199.00000  724.35881  39.6%     - 2340s
     0     0  724.35881    0 2829 1199.00000  724.35881  39.6%     - 2361s
     0     2  724.36057    0 2826 1199.00000  724.36057  39.6%     - 2586s
     1     3  724.72869    1 2813 1199.00000  724.36057  39.6%  1771 2607s
     2     4  740.78514    1 2511 1199.00000  724.72957  39.6% 19714 3025s
     3     5  725.20855    2 2798 1199.00000  724.73079  39.6% 13852 3051s
     4     6  741.93343    2 2525 1199.00000  725.20855  39.5% 17342 3357s
     5     7  725.32929    3 2790 1199.00000  725.20855  39.5% 14140 3374s

Cutting planes:
  Cover: 6
  MIR: 144
  StrongCG: 13
  Zero half: 37
  Mod-K: 12
  RLT: 1129

Explored 6 nodes (235822 simplex iterations) in 3600.04 seconds
Thread count was 1 (of 40 available processors)

Solution count 1: 1199 

Time limit reached
Best objective 1.199000000000e+03, best bound 7.260000000000e+02, gap 39.4495%

User-callback calls 16812, time in user-callback 0.04 sec
